r = [
0,75,92,36,105,10,76,89,30,58,81,0
];
p = [
0,18,1,9,28,3,11,17,3,16,29,0
];
e = [
0,14,1,1,17,6,13,4,12,17,3,0
];
d = [
0,93,107,45,133,24,87,106,45,74,110,136
];
d_bar = [
0,95,108,46,136,25,88,108,46,76,113,136
];
w = [
0,7,1,1,5.666666667,6,13,2,12,8.5,1,0
];
